&control
    calculation = 'scf'
    outdir = './out'
    prefix = 'leads'
    restart_mode = 'from_scratch'
    verbosity = 'high'
    wf_collect = .true.
/
&system
    celldm(1) = 5.669178374
    celldm(2) = 1
    celldm(3) = 0.9466666667
    celldm(4) = 0
    celldm(5) = 0
    celldm(6) = 0
    degauss = 0.001
    ecutrho = 300
    ecutwfc = 50
    ibrav = 14
    lspinorb = .true.
    nat = 2
    noncolin = .true.
    ntyp = 1
    occupations = 'smearing'
/
&electrons
    electron_maxstep = 500
    mixing_beta = 0.2
/
&ions
/
ATOMIC_SPECIES
    c 1.000000 C.pbe-rrkjus.UPF
ATOMIC_POSITIONS crystal
    c 0.500000 0.500000 0.300000 1 1 1
    c 0.500000 0.500000 0.700000 1 1 1
K_POINTS automatic
    1, 1, 32, 0, 0, 0
ATOMIC_SPECIES
    c 1.000000 C.pbe-rrkjus.UPF
ATOMIC_POSITIONS crystal
    c 0.500000 0.500000 0.300000 1 1 1
    c 0.500000 0.500000 0.700000 1 1 1
K_POINTS automatic
    1, 1, 32, 0, 0, 0
