dis_froz_max = 10
dis_froz_min = 2
exclude_bands = 1-90
mp_grid = 8 8 1
num_bands = 198
num_iter = 0
num_wann = 90
spinors = .true.
write_hr = .true.
begin atoms_frac
  se 0.3333333 0.3333334 0.5393333
  se 0.3333333 0.3333334 0.1273333
  bi 0.3333333 0.3333334 0.7323333
  bi 0.3333333 0.3333334 0.9343333
  se 0.6666665 0.6666670 0.6666667
  se 0.6666665 0.6666670 0.8726667
  bi 0.6666665 0.6666670 0.0656667
  bi 0.6666665 0.6666670 0.2676667
  se 1.0000000 0.0000000 0.0000000
  se -0.0000002 1.0000005 0.2060000
  bi -0.0000002 1.0000005 0.3990000
  se 0.0000000 0.0000000 0.7940000
  bi 0.0000000 0.0000000 0.6010000
  se 0.6666665 0.6666670 0.4606667
  se 0.3333333 0.3333334 0.3333333
end atoms_frac
begin kpoints
  0.0000000 0.0000000 0.0000000
  0.0000000 0.1250000 0.0000000
  0.0000000 0.2500000 0.0000000
  0.0000000 0.3750000 0.0000000
  0.0000000 0.5000000 0.0000000
  0.0000000 0.6250000 0.0000000
  0.0000000 0.7500000 0.0000000
  0.0000000 0.8750000 0.0000000
  0.1250000 0.0000000 0.0000000
  0.1250000 0.1250000 0.0000000
  0.1250000 0.2500000 0.0000000
  0.1250000 0.3750000 0.0000000
  0.1250000 0.5000000 0.0000000
  0.1250000 0.6250000 0.0000000
  0.1250000 0.7500000 0.0000000
  0.1250000 0.8750000 0.0000000
  0.2500000 0.0000000 0.0000000
  0.2500000 0.1250000 0.0000000
  0.2500000 0.2500000 0.0000000
  0.2500000 0.3750000 0.0000000
  0.2500000 0.5000000 0.0000000
  0.2500000 0.6250000 0.0000000
  0.2500000 0.7500000 0.0000000
  0.2500000 0.8750000 0.0000000
  0.3750000 0.0000000 0.0000000
  0.3750000 0.1250000 0.0000000
  0.3750000 0.2500000 0.0000000
  0.3750000 0.3750000 0.0000000
  0.3750000 0.5000000 0.0000000
  0.3750000 0.6250000 0.0000000
  0.3750000 0.7500000 0.0000000
  0.3750000 0.8750000 0.0000000
  0.5000000 0.0000000 0.0000000
  0.5000000 0.1250000 0.0000000
  0.5000000 0.2500000 0.0000000
  0.5000000 0.3750000 0.0000000
  0.5000000 0.5000000 0.0000000
  0.5000000 0.6250000 0.0000000
  0.5000000 0.7500000 0.0000000
  0.5000000 0.8750000 0.0000000
  0.6250000 0.0000000 0.0000000
  0.6250000 0.1250000 0.0000000
  0.6250000 0.2500000 0.0000000
  0.6250000 0.3750000 0.0000000
  0.6250000 0.5000000 0.0000000
  0.6250000 0.6250000 0.0000000
  0.6250000 0.7500000 0.0000000
  0.6250000 0.8750000 0.0000000
  0.7500000 0.0000000 0.0000000
  0.7500000 0.1250000 0.0000000
  0.7500000 0.2500000 0.0000000
  0.7500000 0.3750000 0.0000000
  0.7500000 0.5000000 0.0000000
  0.7500000 0.6250000 0.0000000
  0.7500000 0.7500000 0.0000000
  0.7500000 0.8750000 0.0000000
  0.8750000 0.0000000 0.0000000
  0.8750000 0.1250000 0.0000000
  0.8750000 0.2500000 0.0000000
  0.8750000 0.3750000 0.0000000
  0.8750000 0.5000000 0.0000000
  0.8750000 0.6250000 0.0000000
  0.8750000 0.7500000 0.0000000
  0.8750000 0.8750000 0.0000000
end kpoints
begin projections
bi : px; py; pz
se : px; py; pz
end projections
begin unit_cell_cart
  -4.1380002 0.0000000 0.0000000
  -2.0690001 -3.5836116 0.0000000
  0.0000000 0.0000000 28.6400012
end unit_cell_cart