&CONTROL
    calculation = 'relax'
    nstep = 10
    outdir = 'out-shared'
    prefix = 'bise'
    pseudo_dir = '.'
    verbosity = 'high'
    wfcdir = 'out-node'
/
&SYSTEM
    degauss = 1.000000e-04
    ecutrho = 200
    ecutwfc = 40
    ibrav = 0
    nat = 135
    nosym = .true.
    ntyp = 2
    occupations = 'smearing'
/
&ELECTRONS
    conv_thr = 1.000000e-08
    diago_david_ndim = 2
    electron_maxstep = 100
    mixing_beta = 2.000000e-01
    scf_must_converge = .false.
/
&IONS
/
ATOMIC_SPECIES
    bi 208.980 bi_pbe_v1.uspp.F.UPF
    se 78.972 se_pbe_v1.uspp.F.UPF
ATOMIC_POSITIONS crystal
    se 0.70815341169813 0.60739944494483 0.54288782891054 1.000000 1.000000 1.000000
    se 0.43006061774733 0.65398338307372 0.43747881955336 1.000000 1.000000 1.000000
    bi 0.89177300078208 0.96366276050103 0.38344151882578 1.000000 1.000000 1.000000
    bi 0.80682842565474 0.56132087790380 0.56978342356618 1.000000 1.000000 1.000000
    se 0.92559663829266 0.07103605819789 0.08712929970154 1.000000 1.000000 1.000000
    se 0.02021839744033 0.83261984554794 0.77815675094985 1.000000 1.000000 1.000000
    bi 0.87262107488417 0.98084418703516 0.75844525714676 1.000000 1.000000 1.000000
    bi 0.46147936225293 0.78052917628646 0.11827442586893 1.000000 1.000000 1.000000
    se 0.61303204408748 0.13927054731974 0.95068900543159 1.000000 1.000000 1.000000
    se 0.52184832175007 0.41466193999052 0.26455561210463 1.000000 1.000000 1.000000
    bi 0.79036775693968 0.44241205976894 0.57000981721197 1.000000 1.000000 1.000000
    se 0.01122449387295 0.60164269878023 0.60758349610139 1.000000 1.000000 1.000000
    bi 0.61693399687476 0.94374807851462 0.68182029910348 1.000000 1.000000 1.000000
    se 0.35950790057379 0.43703195379934 0.69763119592726 1.000000 1.000000 1.000000
    se 0.06857285831155 0.67661206836128 0.68270396057794 1.000000 1.000000 1.000000
    se 0.18586576693871 0.13188145015531 0.32195769291934 1.000000 1.000000 1.000000
    se 0.35730495253419 0.56210750041082 0.43870990517165 1.000000 1.000000 1.000000
    bi 0.98837383805923 0.10204481074803 0.20887675609483 1.000000 1.000000 1.000000
    bi 0.14404222700484 0.62301392851530 0.24665986762902 1.000000 1.000000 1.000000
    se 0.50843426862241 0.25929031880115 0.16522713798148 1.000000 1.000000 1.000000
    se 0.11037514116431 0.65632958946527 0.13818295134861 1.000000 1.000000 1.000000
    bi 0.19658236168005 0.36872517066096 0.82099322984794 1.000000 1.000000 1.000000
    bi 0.12593439589161 0.85914269752042 0.10566094811694 1.000000 1.000000 1.000000
    se 0.96164027957325 0.46577590555511 0.97663676169735 1.000000 1.000000 1.000000
    se 0.60484551974505 0.73926357939830 0.03918779225432 1.000000 1.000000 1.000000
    bi 0.30732375671154 0.11724140871271 0.28961085552699 1.000000 1.000000 1.000000
    se 0.11872771895424 0.31798317939398 0.41426299451467 1.000000 1.000000 1.000000
    bi 0.06754223561240 0.69812505711972 0.56292646202741 1.000000 1.000000 1.000000
    se 0.27110417005378 0.52338103943382 0.09643040440216 1.000000 1.000000 1.000000
    se 0.56719302205935 0.93864553288012 0.32600063612592 1.000000 1.000000 1.000000
    se 0.66768325026919 0.12700518720697 0.71671862737821 1.000000 1.000000 1.000000
    se 0.28940609294720 0.18319136200712 0.58651293481008 1.000000 1.000000 1.000000
    bi 0.01354500073756 0.83804736672893 0.98433393078404 1.000000 1.000000 1.000000
    bi 0.66232785868074 0.23999178600356 0.70929979662263 1.000000 1.000000 1.000000
    se 0.96218854511744 0.24875314351996 0.57615733441784 1.000000 1.000000 1.000000
    se 0.53851167349672 0.56320180189602 0.19614746747944 1.000000 1.000000 1.000000
    bi 0.95274901151699 0.44712537861763 0.84640867247113 1.000000 1.000000 1.000000
    bi 0.70347781689187 0.28826335194358 0.85519185977879 1.000000 1.000000 1.000000
    se 0.39627328199041 0.88037871486111 0.57752459325888 1.000000 1.000000 1.000000
    se 0.88173536185485 0.69253159007777 0.72525427981964 1.000000 1.000000 1.000000
    bi 0.50132438192670 0.95608363472322 0.64399019922964 1.000000 1.000000 1.000000
    se 0.42385504855818 0.60639321412792 0.01919319830933 1.000000 1.000000 1.000000
    bi 0.33637070581720 0.66821021256266 0.30987544871682 1.000000 1.000000 1.000000
    se 0.61348177110999 0.47342196027873 0.16643446638551 1.000000 1.000000 1.000000
    se 0.29828232595603 0.56996491070126 0.59087276124817 1.000000 1.000000 1.000000
    se 0.57432524884958 0.65320081985713 0.65210327000169 1.000000 1.000000 1.000000
    se 0.43141843543397 0.89654659585106 0.36756187004790 1.000000 1.000000 1.000000
    bi 0.43959890791562 0.88966505043879 0.80808313547086 1.000000 1.000000 1.000000
    bi 0.72060725771816 0.08919396880950 0.91294895351294 1.000000 1.000000 1.000000
    se 0.72051210084062 0.97004290162699 0.14450603341426 1.000000 1.000000 1.000000
    se 0.86812605736821 0.16249293467637 0.61555956428384 1.000000 1.000000 1.000000
    bi 0.12381998284944 0.84800822932223 0.80731895872501 1.000000 1.000000 1.000000
    bi 0.52331805623659 0.40865135289718 0.05842636970852 1.000000 1.000000 1.000000
    se 0.69511185902923 0.47078352548696 0.71817832734823 1.000000 1.000000 1.000000
    se 0.86377339929128 0.97329566020049 0.89651664946258 1.000000 1.000000 1.000000
    bi 0.01171408418500 0.35997806447836 0.72999056242406 1.000000 1.000000 1.000000
    se 0.17166164959497 0.52129384964278 0.04351908415154 1.000000 1.000000 1.000000
    bi 0.19959499749367 0.01721219028447 0.79256688208924 1.000000 1.000000 1.000000
    se 0.22392468806038 0.34535168069690 0.92808129346559 1.000000 1.000000 1.000000
    se 0.68924477735851 0.08277060144756 0.18822734779966 1.000000 1.000000 1.000000
    se 0.67500865927488 0.58627869249903 0.26482698653569 1.000000 1.000000 1.000000
    se 0.93051460672463 0.61568777377402 0.53307947359533 1.000000 1.000000 1.000000
    bi 0.58990997635457 0.73012202951677 0.31194499547960 1.000000 1.000000 1.000000
    bi 0.37704502938450 0.18799373648373 0.22587081062111 1.000000 1.000000 1.000000
    se 0.94437238998393 0.73955079504929 0.49045880861757 1.000000 1.000000 1.000000
    se 0.20718650282926 0.25858465040764 0.04481879241244 1.000000 1.000000 1.000000
    bi 0.43441662555812 0.31179588199410 0.69634348881546 1.000000 1.000000 1.000000
    bi 0.37516484061905 0.16999876741782 0.01303838882531 1.000000 1.000000 1.000000
    se 0.06724963146325 0.67939277349857 0.45369684455605 1.000000 1.000000 1.000000
    se 0.53657921110872 0.89667129304034 0.99033894739670 1.000000 1.000000 1.000000
    bi 0.23522067187533 0.68144482314785 0.25822830201032 1.000000 1.000000 1.000000
    se 0.02065099946573 0.75837865383614 0.32001715082247 1.000000 1.000000 1.000000
    bi 0.36117135216049 0.61232620331513 0.80627726453678 1.000000 1.000000 1.000000
    se 0.63773531708798 0.86330132014350 0.26611035114104 1.000000 1.000000 1.000000
    se 0.79804683391256 0.18563594430595 0.95279165697194 1.000000 1.000000 1.000000
    se 0.69754443560684 0.22946018702604 0.94974286500513 1.000000 1.000000 1.000000
    se 0.73357828514506 0.24894710558841 0.23761414057147 1.000000 1.000000 1.000000
    bi 0.51820071393066 0.02566271805453 0.20747007544111 1.000000 1.000000 1.000000
    bi 0.42468546875151 0.37416998033423 0.46357542436481 1.000000 1.000000 1.000000
    se 0.27238727576572 0.58576055645853 0.86671455415730 1.000000 1.000000 1.000000
    se 0.11178520451417 0.51698887774834 0.14039711688914 1.000000 1.000000 1.000000
    bi 0.69265818078935 0.37273594823083 0.56410193512930 1.000000 1.000000 1.000000
    bi 0.18327983621408 0.14484775934338 0.48805628064895 1.000000 1.000000 1.000000
    se 0.34709061516918 0.94669954532027 0.77170263284815 1.000000 1.000000 1.000000
    se 0.75756244312406 0.88159217277055 0.06483151538400 1.000000 1.000000 1.000000
    bi 0.55219246992241 0.58447606895577 0.96193637854723 1.000000 1.000000 1.000000
    se 0.29023022429368 0.23636371072544 0.11575296487733 1.000000 1.000000 1.000000
    bi 0.01642962959147 0.92952931679219 0.66991654659091 1.000000 1.000000 1.000000
    se 0.78515291202314 0.28173010575395 0.58641016618633 1.000000 1.000000 1.000000
    se 0.07877445156112 0.48850289202722 0.97761946623744 1.000000 1.000000 1.000000
    se 0.87650524531659 0.33815895183685 0.96157015454150 1.000000 1.000000 1.000000
    se 0.23170162647120 0.94931882241568 0.94137770470650 1.000000 1.000000 1.000000
    bi 0.79920258735239 0.63044793686679 0.87428796662495 1.000000 1.000000 1.000000
    bi 0.29302028450780 0.84894355531292 0.61787669191752 1.000000 1.000000 1.000000
    se 0.01323685775890 0.34723351793222 0.14814086094817 1.000000 1.000000 1.000000
    se 0.98182938981825 0.47837030703999 0.49739136549866 1.000000 1.000000 1.000000
    bi 0.64207694827684 0.36562708896755 0.17833186737977 1.000000 1.000000 1.000000
    bi 0.82211773319425 0.18984791190276 0.51131898254646 1.000000 1.000000 1.000000
    se 0.22471855637747 0.09915408867018 0.86332233868986 1.000000 1.000000 1.000000
    se 0.97291948902313 0.96083465806300 0.90655549922118 1.000000 1.000000 1.000000
    bi 0.78361226233454 0.35388451030729 0.06661135245890 1.000000 1.000000 1.000000
    se 0.40891458008883 0.25010892329281 0.09555601808939 1.000000 1.000000 1.000000
    bi 0.05514492651317 0.71687306831435 0.00349704178705 1.000000 1.000000 1.000000
    se 0.77052780826091 0.14640786726983 0.07925097773861 1.000000 1.000000 1.000000
    se 0.04463952389082 0.68720353216040 0.24089991683050 1.000000 1.000000 1.000000
    se 0.44807343922052 0.53438349156203 0.88246341629413 1.000000 1.000000 1.000000
    se 0.77986123210464 0.24396170200616 0.12934419811102 1.000000 1.000000 1.000000
    bi 0.05537432042120 0.30159863448094 0.26211814923968 1.000000 1.000000 1.000000
    bi 0.45614056680048 0.68328133554768 0.69562544563886 1.000000 1.000000 1.000000
    se 0.28351884658217 0.37992695590012 0.18115096173690 1.000000 1.000000 1.000000
    se 0.78854551230652 0.05684807643324 0.69699724172499 1.000000 1.000000 1.000000
    bi 0.77869539594110 0.77740756184875 0.25942256434535 1.000000 1.000000 1.000000
    bi 0.38292436254100 0.57613501222227 0.26921716357802 1.000000 1.000000 1.000000
    se 0.37085279921789 0.19705428018564 0.45985588375601 1.000000 1.000000 1.000000
    se 0.02062398187915 0.77821205293367 0.09568586901014 1.000000 1.000000 1.000000
    bi 0.51883514883153 0.30681009954520 0.57754294883138 1.000000 1.000000 1.000000
    se 0.95943334083343 0.64557024445600 0.03536243575549 1.000000 1.000000 1.000000
    bi 0.43040243950806 0.51001685231825 0.53617749470345 1.000000 1.000000 1.000000
    se 0.65944890366681 0.27688706127039 0.07758606355370 1.000000 1.000000 1.000000
    se 0.40849999817156 0.93226821683020 0.20324292094580 1.000000 1.000000 1.000000
    se 0.90350652674592 0.54257863989954 0.45558587891581 1.000000 1.000000 1.000000
    se 0.88204141022989 0.45860396176859 0.72416763661154 1.000000 1.000000 1.000000
    bi 0.40404592059047 0.90075957966044 0.68550677410225 1.000000 1.000000 1.000000
    bi 0.71327037844471 0.35562516872544 0.74290597435653 1.000000 1.000000 1.000000
    se 0.60798971094364 0.21305645315852 0.18365612924500 1.000000 1.000000 1.000000
    se 0.79639147451733 0.95916660303522 0.45813882726004 1.000000 1.000000 1.000000
    bi 0.59098416532368 0.85772264419355 0.45722345335386 1.000000 1.000000 1.000000
    bi 0.95187447683274 0.57575116204487 0.82076712070131 1.000000 1.000000 1.000000
    se 0.90884371841274 0.81552381876857 0.15941446344896 1.000000 1.000000 1.000000
    se 0.66368541643553 0.39305579281581 0.02220429787646 1.000000 1.000000 1.000000
    bi 0.42403225188984 0.25868406688941 0.84903830842851 1.000000 1.000000 1.000000
    se 0.03330462654670 0.95898272186347 0.35536884847193 1.000000 1.000000 1.000000
    bi 0.33977893632766 0.04448212101526 0.18401079007847 1.000000 1.000000 1.000000
    se 0.40236313325403 0.92527530493691 0.08472443618404 1.000000 1.000000 1.000000
    se 0.94530153347908 0.86948853054663 0.45416239690755 1.000000 1.000000 1.000000
K_POINTS gamma

CELL_PARAMETERS angstrom
    1.85636040599457e+01 -3.67528106382461e-02 -1.79093134290208e-01
    -3.67528106382461e-02 1.81538954826120e+01 -5.81588660596537e-02
    -1.79093134290208e-01 -5.81588660596537e-02 1.85441928301205e+01